1-3000-10-1000000-10-90-40-0-129-97304.2-3000.15-2991.22-1-1
1-3000-10-1000000-10-90-40-0-137-97967.7-3000.17-2999.25-1-1
1-3000-10-1000000-10-90-40-0-279-97836.6-3000.05-2998.55-1-1
1-3000-10-1000000-10-90-40-0-672-98492.5-3000.2-2988.37-1-1
1-3000-10-1000000-10-90-40-0-195-97346.6-3000.36-2996-1-1
1-3000-10-1000000-10-90-40-0-666-97488.4-3000.34-2995.05-1-1
1-3000-10-1000000-10-90-40-0-429-96588.4-3000.22-2994.19-1-1
1-3000-10-1000000-10-90-40-0-762-97868.6-3000.06-2993.96-1-1
1-3000-10-1000000-10-90-40-0-821-97805.6-3000.1-2993.46-1-1
1-3000-10-1000000-10-90-40-0-483-97438.9-3000.13-2989.26-1-1
1-3000-10-1000000-10-90-40-0-999-97300.2-3000.35-2981.02-1-1
1-3000-10-1000000-10-90-40-0-729-97621.9-3000.4-2977.51-1-1
1-3000-10-1000000-10-90-40-0-318-97331.9-3000.41-2991.79-1-1
1-3000-10-1000000-10-90-40-0-349-97410.4-3000.21-2983.97-1-1
1-3000-10-1000000-10-90-40-0-287-97758.9-3000.19-2999.92-1-1
1-3000-10-1000000-10-90-40-0-241-97859.9-3000.01-2990.12-1-1
1-3000-10-1000000-10-90-40-0-476-97777-3000.18-2999.93-1-1
1-3000-10-1000000-10-90-40-0-555-98151.6-3000.06-2992.61-1-1
1-3000-10-1000000-10-90-40-0-581-97595.4-3000.12-2990.66-1-1
1-3000-10-1000000-10-90-40-0-573-97506.5-3000.15-2998.82-1-1
